&INPUTPH
    prefix      = 'pwscf'
    outdir      = './scratch'
    fildyn      = 'dyn'
    tr2_ph      = 1e-12
    ldisp       = .true.
    nq1         = 2
    nq2         = 2
    nq3         = 2
/
