&INPUT
    fildyn = 'dyn'
    flfrc = 'pwscf.fc'
    zasr =  'simple'
/
